NAME : rat99.3044456.tour
COMMENT : Cost = 437257_3044456
COMMENT : Found by LKH [Keld Helsgaun] Thu Jan 19 22:34:51 2017
TYPE : TOUR
DIMENSION : 105
TOUR_SECTION
1
2
12
13
23
24
33
42
52
53
62
71
81
72
63
54
45
44
36
27
17
18
9
8
7
6
5
4
105
40
49
59
78
89
99
90
80
70
61
41
32
22
104
47
56
65
74
83
93
92
91
82
73
64
55
46
10
100
88
97
96
87
101
19
28
37
76
85
67
60
51
43
34
35
26
25
16
15
14
3
102
11
21
31
50
98
79
69
103
30
39
48
58
68
77
86
95
94
84
75
66
57
38
29
20
-1
EOF
